
  22   10
  10   10   10   10   10   10   10   10   10   10

   0   0   0   0   0   0   0   0   0   0   0   3 2 4 12 
   7  10  10  10  10  10  10  10  10  10  10   3 9 8 3 
  10  10  10  10  10  10  10  10  10  10  10   2 7 5 
  10  10  10  10  10  10  10  10  10  10  10   5 13 11 10 8 7 
   5  10  10  10  10  10  10  10  10  10  10   4 20 11 10 6 
   5  10  10  10  10  10  10  10  10  10  10   5 19 18 16 15 13 
   2  10  10  10  10  10  10  10  10  10  10   4 20 16 15 14 
   9  10  10  10  10  10  10  10  10  10  10   4 20 19 17 14 
   3  10  10  10  10  10  10  10  10  10  10   4 20 19 17 14 
   3  10  10  10  10  10  10  10  10  10  10   3 19 17 14 
   3  10  10  10  10  10  10  10  10  10  10   2 17 14 
   5  10  10  10  10  10  10  10  10  10  10   2 18 15 
   6  10  10  10  10  10  10  10  10  10  10   2 21 17 
   2  10  10  10  10  10  10  10  10  10  10   1 18 
   7  10  10  10  10  10  10  10  10  10  10   1 17 
  10  10  10  10  10  10  10  10  10  10  10   1 17 
  10  10  10  10  10  10  10  10  10  10  10   1 22
  10  10  10  10  10  10  10  10  10  10  10   1 22
   3  10  10  10  10  10  10  10  10  10  10   1 22
  10  10  10  10  10  10  10  10  10  10  10   1 22
   1  10  10  10  10  10  10  10  10  10  10   1 22
   0   0   0   0   0   0   0   0   0   0   0   0 
